n = 28;
k = 3;
roles = [
{g, f},
{d, f},
{d, f},
{m, f},
{g, m},
{f, m},
{g, d},
{g, f},
{d, g},
{g, m},
{d, f},
{d, m},
{g, m},
{d, g},
{g, d},
{g, m},
{m, g},
{m, g},
{d, g},
{d, g},
{d, m},
{d, g},
{m, f},
{m, f},
{f, g},
{d, g},
{f, m},
{g, m}
];
num_pairs = 3;
player1 = [7, 16, 22];
player2 = [5, 28, 23];
